 vasp.5.4.4.18Apr17-6-g9f103f2a35 (build Aug 14 2019 21:35:17) complex

 executed on             LinuxIFC date 2020.11.06  13:01:47

 INCAR:
 POTCAR:    PAW_PBE Br 06Sep2000
 POTCAR:    PAW_PBE Cd 06Sep2000
 POTCAR:    PAW_PBE Cs_sv 08Apr2002

 POTCAR:    PAW_PBE Br 06Sep2000
   VRHFIN =Br: s2p5

   TITEL  = PAW_PBE Br 06Sep2000
   POMASS =   79.904; ZVAL   =    7.000    mass and valenz
   ENMAX  =  216.285; ENMIN  =  162.214 eV

 POTCAR:    PAW_PBE Cd 06Sep2000
   VRHFIN =Cd : s2 d10

   TITEL  = PAW_PBE Cd 06Sep2000
   POMASS =  112.411; ZVAL   =   12.000    mass and valenz
   ENMAX  =  274.336; ENMIN  =  205.752 eV

 POTCAR:    PAW_PBE Cs_sv 08Apr2002
   VRHFIN =Cs: 5s5p6s

   TITEL  = PAW_PBE Cs_sv 08Apr2002
   POMASS =  132.900; ZVAL   =    9.000    mass and valenz
   ENMAX  =  220.318; ENMIN  =  165.238 eV

  PAW_PBE Br 06Sep2000                  :
  PAW_PBE Cd 06Sep2000                  :
  PAW_PBE Cs_sv 08Apr2002               :

 POSCAR: Br3Cd1Cs1   [CUB,CUB,cP5] (STD_PRIM doi:
  positions in direct lattice
  velocities in cartesian coordinates
 exchange correlation table for  LEXCH =       14
   RHO(1)=    0.500       N(1)  =     2000
   RHO(2)=  100.500       N(2)  =     4000

 ion  position               nearest neighbor table
   1  0.000  0.500  0.500-   4 2.74   4 2.74
   2  0.500  0.000  0.500-   4 2.74   4 2.74
   3  0.500  0.500  0.000-   4 2.74   4 2.74
   4  0.500  0.500  0.500-   1 2.74   2 2.74   3 2.74   3 2.74   2 2.74   1 2.74
   5  0.000  0.000  0.000-

  LATTYP: Found a simple cubic cell.
 ALAT       =     5.4872473072

  Lattice vectors:

 A1 = (   5.4872473072,   0.0000000000,   0.0000000000)
 A2 = (   0.0000000000,   5.4872473072,   0.0000000000)
 A3 = (   0.0000000000,   0.0000000000,   5.4872473072)

Analysis of symmetry for initial positions (statically):
 Subroutine PRICEL returns:
 Original cell was already a primitive cell.

 Routine SETGRP: Setting up the symmetry group for a
 simple cubic supercell.

 Subroutine GETGRP returns: Found 48 space group operations
 (whereof 48 operations were pure point group operations)
 out of a pool of 48 trial point group operations.

The static configuration has the point symmetry O_h .

Analysis of symmetry for dynamics (positions and initial velocities):
 Subroutine PRICEL returns:
 Original cell was already a primitive cell.

[...]

The dynamic configuration has the point symmetry O_h .

 Subroutine INISYM returns: Found 48 space group operations
 (whereof 48 operations are pure point group operations),
 and found     1 'primitive' translations

 KPOINTS: A

Automatic generation of k-mesh.
Space group operators:
 irot       det(A)        alpha          n_x          n_y          n_z        tau_x        tau_y        tau_z
    1     1.000000     0.000000     1.000000     0.000000     0.000000     0.000000     0.000000     0.000000
    2    -1.000000     0.000000     1.000000     0.000000     0.000000     0.000000     0.000000     0.000000
    3     1.000000   120.000000    -0.577350    -0.577350    -0.577350     0.000000     0.000000     0.000000
    4    -1.000000   120.000000    -0.577350    -0.577350    -0.577350     0.000000     0.000000     0.000000
    5     1.000000   120.000000     0.577350     0.577350     0.577350     0.000000     0.000000     0.000000
    6    -1.000000   120.000000     0.577350     0.577350     0.577350     0.000000     0.000000     0.000000
    7     1.000000    90.000000     0.000000     0.000000    -1.000000     0.000000     0.000000     0.000000
    8    -1.000000    90.000000     0.000000     0.000000    -1.000000     0.000000     0.000000     0.000000
    9     1.000000   180.000000     0.000000     0.707107     0.707107     0.000000     0.000000     0.000000
   10    -1.000000   180.000000     0.000000     0.707107     0.707107     0.000000     0.000000     0.000000
   11     1.000000    90.000000     0.000000     1.000000     0.000000     0.000000     0.000000     0.000000
   12    -1.000000    90.000000     0.000000     1.000000     0.000000     0.000000     0.000000     0.000000
   13     1.000000   180.000000     0.000000     0.000000     1.000000     0.000000     0.000000     0.000000
   14    -1.000000   180.000000     0.000000     0.000000     1.000000     0.000000     0.000000     0.000000
   15     1.000000   120.000000    -0.577350     0.577350     0.577350     0.000000     0.000000     0.000000
   16    -1.000000   120.000000    -0.577350     0.577350     0.577350     0.000000     0.000000     0.000000
   17     1.000000   120.000000    -0.577350     0.577350    -0.577350     0.000000     0.000000     0.000000
   18    -1.000000   120.000000    -0.577350     0.577350    -0.577350     0.000000     0.000000     0.000000
   19     1.000000    90.000000     0.000000     0.000000     1.000000     0.000000     0.000000     0.000000
   20    -1.000000    90.000000     0.000000     0.000000     1.000000     0.000000     0.000000     0.000000
   21     1.000000    90.000000    -1.000000     0.000000     0.000000     0.000000     0.000000     0.000000
   22    -1.000000    90.000000    -1.000000     0.000000     0.000000     0.000000     0.000000     0.000000
   23     1.000000   180.000000     0.707107     0.000000     0.707107     0.000000     0.000000     0.000000
   24    -1.000000   180.000000     0.707107     0.000000     0.707107     0.000000     0.000000     0.000000
   25     1.000000   120.000000     0.577350    -0.577350     0.577350     0.000000     0.000000     0.000000
   26    -1.000000   120.000000     0.577350    -0.577350     0.577350     0.000000     0.000000     0.000000
   27     1.000000   120.000000    -0.577350    -0.577350     0.577350     0.000000     0.000000     0.000000
   28    -1.000000   120.000000    -0.577350    -0.577350     0.577350     0.000000     0.000000     0.000000
   29     1.000000   180.000000     1.000000     0.000000     0.000000     0.000000     0.000000     0.000000
   30    -1.000000   180.000000     1.000000     0.000000     0.000000     0.000000     0.000000     0.000000
   31     1.000000    90.000000     0.000000    -1.000000     0.000000     0.000000     0.000000     0.000000
   32    -1.000000    90.000000     0.000000    -1.000000     0.000000     0.000000     0.000000     0.000000
   33     1.000000   180.000000     0.707107     0.707107     0.000000     0.000000     0.000000     0.000000
   34    -1.000000   180.000000     0.707107     0.707107     0.000000     0.000000     0.000000     0.000000
   35     1.000000    90.000000     1.000000     0.000000     0.000000     0.000000     0.000000     0.000000
   36    -1.000000    90.000000     1.000000     0.000000     0.000000     0.000000     0.000000     0.000000
   37     1.000000   120.000000     0.577350    -0.577350    -0.577350     0.000000     0.000000     0.000000
   38    -1.000000   120.000000     0.577350    -0.577350    -0.577350     0.000000     0.000000     0.000000
   39     1.000000   180.000000     0.000000     1.000000     0.000000     0.000000     0.000000     0.000000
   40    -1.000000   180.000000     0.000000     1.000000     0.000000     0.000000     0.000000     0.000000
   41     1.000000   120.000000     0.577350     0.577350    -0.577350     0.000000     0.000000     0.000000
   42    -1.000000   120.000000     0.577350     0.577350    -0.577350     0.000000     0.000000     0.000000
   43     1.000000   180.000000     0.000000    -0.707107     0.707107     0.000000     0.000000     0.000000
   44    -1.000000   180.000000     0.000000    -0.707107     0.707107     0.000000     0.000000     0.000000
   45     1.000000   180.000000     0.707107    -0.707107     0.000000     0.000000     0.000000     0.000000
   46    -1.000000   180.000000     0.707107    -0.707107     0.000000     0.000000     0.000000     0.000000
   47     1.000000   180.000000     0.707107     0.000000    -0.707107     0.000000     0.000000     0.000000
   48    -1.000000   180.000000     0.707107     0.000000    -0.707107     0.000000     0.000000     0.000000

 Subroutine IBZKPT returns following result:

 Found     84 irreducible k-points:

 Following reciprocal coordinates:
            Coordinates               Weight
  0.000000  0.000000  0.000000      1.000000
  0.083333  0.000000  0.000000      6.000000
  0.166667  0.000000  0.000000      6.000000
  0.250000  0.000000  0.000000      6.000000
  0.333333  0.000000  0.000000      6.000000
  0.416667  0.000000  0.000000      6.000000
  0.500000  0.000000  0.000000      3.000000
  0.083333  0.083333  0.000000     12.000000
  0.166667  0.083333  0.000000     24.000000
  0.250000  0.083333  0.000000     24.000000
  0.333333  0.083333  0.000000     24.000000
  0.416667  0.083333  0.000000     24.000000
  0.500000  0.083333  0.000000     12.000000
  0.166667  0.166667  0.000000     12.000000
  0.250000  0.166667  0.000000     24.000000
  0.333333  0.166667  0.000000     24.000000
  0.416667  0.166667  0.000000     24.000000
  0.500000  0.166667  0.000000     12.000000
  0.250000  0.250000  0.000000     12.000000
  0.333333  0.250000  0.000000     24.000000
  0.416667  0.250000  0.000000     24.000000
  0.500000  0.250000  0.000000     12.000000
  0.333333  0.333333  0.000000     12.000000
  0.416667  0.333333  0.000000     24.000000
  0.500000  0.333333  0.000000     12.000000
  0.416667  0.416667  0.000000     12.000000
  0.500000  0.416667  0.000000     12.000000
  0.500000  0.500000  0.000000      3.000000
  0.083333  0.083333  0.083333      8.000000
  0.166667  0.083333  0.083333     24.000000
  0.250000  0.083333  0.083333     24.000000
  0.333333  0.083333  0.083333     24.000000
  0.416667  0.083333  0.083333     24.000000
  0.500000  0.083333  0.083333     12.000000
  0.166667  0.166667  0.083333     24.000000
  0.250000  0.166667  0.083333     48.000000
  0.333333  0.166667  0.083333     48.000000
  0.416667  0.166667  0.083333     48.000000
  0.500000  0.166667  0.083333     24.000000
  0.250000  0.250000  0.083333     24.000000
  0.333333  0.250000  0.083333     48.000000
  0.416667  0.250000  0.083333     48.000000
  0.500000  0.250000  0.083333     24.000000
  0.333333  0.333333  0.083333     24.000000
  0.416667  0.333333  0.083333     48.000000
  0.500000  0.333333  0.083333     24.000000
  0.416667  0.416667  0.083333     24.000000
  0.500000  0.416667  0.083333     24.000000
  0.500000  0.500000  0.083333      6.000000
  0.166667  0.166667  0.166667      8.000000
  0.250000  0.166667  0.166667     24.000000
  0.333333  0.166667  0.166667     24.000000
  0.416667  0.166667  0.166667     24.000000
  0.500000  0.166667  0.166667     12.000000
  0.250000  0.250000  0.166667     24.000000
  0.333333  0.250000  0.166667     48.000000
  0.416667  0.250000  0.166667     48.000000
  0.500000  0.250000  0.166667     24.000000
  0.333333  0.333333  0.166667     24.000000
  0.416667  0.333333  0.166667     48.000000
[...]
  0.416667  0.333333  0.250000     48.000000
  0.500000  0.333333  0.250000     24.000000
  0.416667  0.416667  0.250000     24.000000
  0.500000  0.416667  0.250000     24.000000
  0.500000  0.500000  0.250000      6.000000
  0.333333  0.333333  0.333333      8.000000
[...]
      2.74362      0.00000      2.74362    -0.83010 -0.00000  0.00000 (  1.39226  7.00000)
      2.74362      2.74362      0.00000    -0.83010 -0.00000  0.00000 (  1.39226  7.00000)
      2.74362      2.74362      2.74362     2.95099 -0.00000  0.00000 ( -5.81038 12.00000)
      0.00000      0.00000      0.00000     1.35973  0.00000  0.00000 (  2.00457  9.00000)
    total drift (improves with k-points):  -0.00073 -0.00000  0.00000

[...]

 Linear response to external field, progress :
  Direction:   3
  LATTYP: Found a simple cubic cell.
 ALAT       =     5.4872473072

[...]

 change of polarisation eV/A/(eV/A) component  3 :    -0.763    -0.376     3.129
 dielectric tensor                  component  3 :    -0.836    -0.412     4.427

 PIEZOELECTRIC TENSOR FIELD DIRECTION 3  (e Angst)
     0.00104  0.00000 -0.00000           (  0.00000  0.00000  0.00000)
     0.00000  0.00104  0.00000           (  0.00000  0.00000  0.00000)
     0.00000  0.00000 -0.00133           (  0.00000  0.00000  0.00000)

 PIEZOELECTRIC TENSOR FIELD DIRECTION 3  (C/m^2)
     0.00010  0.00000 -0.00000
     0.00000  0.00010  0.00000
     0.00000  0.00000 -0.00013

      POSITION         DIRECTION 3           BORN EFFECTIVE CHARGE    (rigid.aug.   ionic)
      0.00000      2.74362      2.74362     0.00000  0.00000 -0.83010 (  1.39226  7.00000)
      2.74362      0.00000      2.74362     0.00000 -0.00000 -0.83010 (  1.39226  7.00000)
      2.74362      2.74362      0.00000     0.00000 -0.00000 -2.65125 (  1.39226  7.00000)
      2.74362      2.74362      2.74362     0.00000 -0.00000  2.95099 ( -5.81038 12.00000)
      0.00000      0.00000      0.00000     0.00000 -0.00000  1.35973 (  2.00457  9.00000)
    total drift (improves with k-points):   0.00000 -0.00000 -0.00073

[...]

 MACROSCOPIC STATIC DIELECTRIC TENSOR (including local field effects in DFT)
           4.427409     0.000000    -0.000000
           0.000000     4.427409    -0.000000
          -0.000000     0.000000     4.427409

 Linear response:
   Degrees of freedom DOF   =            4
 Linear response progress:
  Degree of freedom:   1/  4
  LATTYP: Found a simple cubic cell.
 ALAT       =     5.4872473072

[...]

 INTERNAL STRAIN TENSOR  FOR ION    1  DIRECTION 1   (eV/Angst):
    -0.00076  0.00000 -0.00000
     0.00000 -0.00250 -0.00000
     0.00000 -0.00000 -0.00250

 POSITION                   FORCE-CONSTANT FOR ION    1 DIRECTION 1 (eV/Angst/Angst)
      0.00000      2.74362      2.74362        -5.172456     -0.000000      0.000000
      2.74362      0.00000      2.74362         0.875598      0.000000     -0.000000
      2.74362      2.74362      0.00000         0.875598      0.000000     -0.000000
      2.74362      2.74362      2.74362         3.368526      0.000000     -0.000000
      0.00000      0.00000      0.00000         0.052734      0.000000     -0.000000
    total drift:                                0.000000      0.000000     -0.000000

 BORN EFFECTIVE CHARGE FOR ION    1 DIRECTION 1 :  -2.651   0.000   0.000
                   rigid augmentation           :   1.392   0.000   0.000
                   ionic contribution           :   7.000   0.000   0.000
                   Berry contribution           : -11.044   0.000   0.000

 Linear response progress:
  Degree of freedom:   2/  4
  LATTYP: Found a simple cubic cell.
 ALAT       =     5.4872473072

[...]

 Linear response progress:
  Degree of freedom:   4/  4
  LATTYP: Found a simple cubic cell.
 ALAT       =     5.4872473072

[...]

The dynamic configuration has the point symmetry C_4v.

[...]

----------------------------------------- Iteration   16(   6)  ---------------------------------------

 Broyden mixing:
  rms(total) = 0.18615E-02    rms(broyden)= 0.18614E-02
  rms(prec ) = 0.26385E-02
  weight for this iteration     100.00

 eigenvalues of (default mixing * dielectric matrix)
  average eigenvalue GAMMA=   1.8591
  1.0131  1.4739  2.7352  2.2140

 Free energy of the ion-electron system (eV)
  -Hartree energ DENC   =        -0.09811282
  -V(xc)+E(xc)   XCENC  =         0.00120229
  PAW double counting   =         0.00001395       -0.00001411
  entropy T*S    EENTRO =         0.00000000
  eigenvalues    EBANDS =        -0.08881393
  free energy    TOTEN  =        -0.18572461 eV

  energy without entropy =       -0.18572461

[...]

 k-point 196 :       0.4167    0.5000    0.5000
  band No.  band energies     occupation
      1       0.0000      0.00000
      2       0.0000      0.00000
      3      -0.0000      0.00000
      4      -0.0000      0.00000
      5      -0.0000      0.00000
      6      -0.0000      0.00000
      7      -0.0000      0.00000
      8      -0.0000      0.00000
      9      -0.0000      0.00000
     10       0.0000      0.00000
     11       0.0000      0.00000
     12       0.0000      0.00000
     13      -0.0000      0.00000
     14      -0.0000      0.00000
     15      -0.0000      0.00000
     16      -0.0000      0.00000
     17      -0.0000      0.00000
     18      -0.0000      0.00000
     19      -0.0000      0.00000
     20      -0.0000      0.00000
     21      -0.0000      0.00000
     22      -0.0000      0.00000
     23      -0.0000      0.00000
     24      -0.0000      0.00000
     25       0.0000      0.00000
     26      -0.0000      0.00000
     27      -0.0000      0.00000
     28      -0.0000      0.00000
     29       0.0000      0.00000
     30       0.0000      0.00000
     31       0.0000      0.00000
     32      -0.0000      0.00000
     33      -0.0000      0.00000
     34      -0.0000      0.00000
     35       0.0000      0.00000
     36      -0.0000      0.00000
     37      -0.0000      0.00000
     38      -0.0000      0.00000
     39       0.0000      0.00000
     40      -0.0000      0.00000

------------------------ aborting loop because EDIFF is reached ----------------------------------------

 INTERNAL STRAIN TENSOR  FOR ION    5  DIRECTION 1   (eV/Angst):
    -0.00166  0.00000 -0.00000
     0.00000  0.00032 -0.00000
    -0.00000 -0.00000  0.00032

 POSITION                   FORCE-CONSTANT FOR ION    5 DIRECTION 1 (eV/Angst/Angst)
      0.00000      2.74362      2.74362         0.042061     -0.000000      0.000000
      2.74362      0.00000      2.74362         0.205260     -0.000000      0.000000
      2.74362      2.74362      0.00000         0.205260     -0.000000      0.000000
      2.74362      2.74362      2.74362         0.096864     -0.000000      0.000000
      0.00000      0.00000      0.00000        -0.549446      0.000000     -0.000000
    total drift:                               -0.000000      0.000000      0.000000

 BORN EFFECTIVE CHARGE FOR ION    5 DIRECTION 1 :   1.359   0.000   0.000
                   rigid augmentation           :   2.005   0.000   0.000
                   ionic contribution           :   9.000   0.000   0.000
                   Berry contribution           :  -9.646   0.000   0.000

  LATTYP: Found a simple cubic cell.
 ALAT       =     5.4872473072

  Lattice vectors:

 A1 = (   5.4872473072,   0.0000000000,   0.0000000000)
 A2 = (   0.0000000000,   5.4872473072,   0.0000000000)
 A3 = (   0.0000000000,   0.0000000000,   5.4872473072)

Analysis of symmetry for initial positions (statically):
 Subroutine PRICEL returns:
 Original cell was already a primitive cell.

[...]

The static configuration has the point symmetry O_h .

Analysis of symmetry for dynamics (positions and initial velocities):
 Subroutine PRICEL returns:
 Original cell was already a primitive cell.

 Routine SETGRP: Setting up the symmetry group for a
 simple cubic supercell.

 Subroutine GETGRP returns: Found 48 space group operations
 (whereof 48 operations were pure point group operations)
 out of a pool of 48 trial point group operations.

The dynamic configuration has the point symmetry O_h .

 Subroutine INISYM returns: Found 48 space group operations
 (whereof 48 operations are pure point group operations),
 and found     1 'primitive' translations

 MACROSCOPIC STATIC DIELECTRIC TENSOR (including local field effects in DFT)
           4.427409     0.000000    -0.000000
           0.000000     4.427409    -0.000000
          -0.000000     0.000000     4.427409

 PIEZOELECTRIC TENSOR  for field in x, y, z        (e  Angst)
          XX          YY          ZZ          XY          YZ          ZX
  x    -0.00133     0.00103     0.00103     0.00000    -0.00000    -0.00000
  y     0.00103    -0.00133     0.00103     0.00000     0.00000     0.00000
  z     0.00104     0.00104    -0.00133     0.00000     0.00000    -0.00000

 PIEZOELECTRIC TENSOR  for field in x, y, z        (C/m^2)
          XX          YY          ZZ          XY          YZ          ZX
  x     0.00000     0.00000     0.00000     0.00000     0.00000     0.00000
  y     0.00000     0.00000     0.00000     0.00000     0.00000     0.00000
  z     0.00000     0.00000     0.00000     0.00000     0.00000     0.00000

 BORN EFFECTIVE CHARGES (in e, cummulative output)
 ion    1
    1    -2.65111     0.00000    -0.00000
    2    -0.00000    -0.82995     0.00000
    3    -0.00000     0.00000    -0.82995
 ion    2
    1    -0.82995    -0.00000    -0.00000
    2     0.00000    -2.65111     0.00000
    3     0.00000     0.00000    -0.82995
 ion    3
    1    -0.82995    -0.00000     0.00000
    2     0.00000    -0.82995    -0.00000
    3     0.00000    -0.00000    -2.65111
 ion    4
    1     2.95114     0.00000    -0.00000
    2     0.00000     2.95114     0.00000
    3    -0.00000     0.00000     2.95114
 ion    5
    1     1.35987     0.00000    -0.00000
    2     0.00000     1.35987     0.00000
    3    -0.00000     0.00000     1.35987

 INTERNAL STRAIN TENSOR FOR ION    1 for displacements in x,y,z  (eV/Angst):
          X           Y           Z          XY          YZ          ZX
  x     0.00000     0.00000     0.00000     0.00000     0.00000     0.00000
  y     0.00000     0.00000     0.00000     0.00000     0.00000     0.00000
  z     0.00000     0.00000     0.00000     0.00000     0.00000     0.00000

[...]

 INTERNAL STRAIN TENSOR FOR ION    5 for displacements in x,y,z  (eV/Angst):
          X           Y           Z          XY          YZ          ZX
  x     0.00000     0.00000     0.00000     0.00000     0.00000     0.00000
  y     0.00000     0.00000     0.00000     0.00000     0.00000     0.00000
  z     0.00000     0.00000     0.00000     0.00000     0.00000     0.00000

 SECOND DERIVATIVES (NOT SYMMETRIZED)
               1X          1Y          1Z          2X          2Y          2Z          3X          3Y          3Z          4X          4Y          4Z          5X          5Y          5Z
  1X    -5.172456    0.000000   -0.000000    0.875598   -0.000000    0.000000    0.875598   -0.000000    0.000000    3.368526    0.000000   -0.000000    0.052734    0.000000   -0.000000
  1Y     0.000000   -0.557725    0.000000    0.000000    0.874541    0.000000    0.000000   -0.075301    0.000000    0.000000   -0.456228    0.000000    0.000000    0.214714    0.000000
  1Z     0.000000    0.000000   -0.557725    0.000000    0.000000   -0.075301    0.000000    0.000000    0.874541    0.000000    0.000000   -0.456228    0.000000    0.000000    0.214714
  2X     0.874541    0.000000    0.000000   -0.557725    0.000000    0.000000   -0.075301    0.000000    0.000000   -0.456228    0.000000    0.000000    0.214714    0.000000    0.000000
  2Y    -0.000000    0.875598    0.000000    0.000000   -5.172456   -0.000000   -0.000000    0.875598    0.000000    0.000000    3.368526   -0.000000    0.000000    0.052734   -0.000000
  2Z     0.000000    0.000000   -0.075301    0.000000    0.000000   -0.557725    0.000000    0.000000    0.874541    0.000000    0.000000   -0.456228    0.000000    0.000000    0.214714
  3X     0.874541    0.000000    0.000000   -0.075301    0.000000    0.000000   -0.557725    0.000000    0.000000   -0.456228    0.000000    0.000000    0.214714    0.000000    0.000000
  3Y     0.000000   -0.075301    0.000000    0.000000    0.874541    0.000000    0.000000   -0.557725    0.000000    0.000000   -0.456228    0.000000    0.000000    0.214714    0.000000
  3Z     0.000000    0.000000    0.875598    0.000000    0.000000    0.875598   -0.000000   -0.000000   -5.172456   -0.000000   -0.000000    3.368526   -0.000000   -0.000000    0.052734
  4X     3.370715    0.000000    0.000000   -0.457434   -0.000000    0.000000   -0.457434   -0.000000   -0.000000   -2.569035    0.000000   -0.000000    0.113187   -0.000000   -0.000000
  4Y    -0.000000   -0.457434   -0.000000    0.000000    3.370715    0.000000   -0.000000   -0.457434    0.000000   -0.000000   -2.569035    0.000000   -0.000000    0.113187   -0.000000
  4Z     0.000000   -0.000000   -0.457434   -0.000000    0.000000   -0.457434    0.000000    0.000000    3.370715   -0.000000   -0.000000   -2.569035   -0.000000   -0.000000    0.113187
  5X     0.042061   -0.000000    0.000000    0.205260   -0.000000    0.000000    0.205260    0.000000    0.000000    0.096864   -0.000000    0.000000   -0.549446   -0.000000    0.000000
  5Y    -0.000000    0.205260    0.000000   -0.000000    0.042061    0.000000    0.000000    0.205260    0.000000   -0.000000    0.096864    0.000000   -0.000000   -0.549446    0.000000
  5Z     0.000000   -0.000000    0.205260   -0.000000    0.000000    0.205260    0.000000    0.000000    0.042061    0.000000    0.000000    0.096864    0.000000    0.000000   -0.549446

 Eigenvectors and eigenvalues of the dynamical matrix

   1 f  =    4.652682 THz    29.233665 2PiTHz  155.196773 cm-1    19.241954 meV
             X         Y         Z           dx          dy          dz
      0.000000  2.743624  2.743624     0.404615    0.127306   -0.000000
      2.743624  0.000000  2.743624    -0.068717   -0.749602   -0.000000
      2.743624  2.743624  0.000000    -0.068717    0.127306   -0.000000
      2.743624  2.743624  2.743624    -0.229021    0.424291    0.000000
      0.000000  0.000000  0.000000     0.003443   -0.006379    0.000000

[...]

  12 f  =    0.976220 THz     6.133772 2PiTHz   32.563200 cm-1     4.037324 meV
             X         Y         Z           dx          dy          dz
      0.000000  2.743624  2.743624     0.005859   -0.009110    0.218116
      2.743624  0.000000  2.743624    -0.003846    0.013878    0.218116
      2.743624  2.743624  0.000000    -0.003846   -0.009110   -0.332247
      2.743624  2.743624  2.743624     0.012517    0.029647   -0.709799
      0.000000  0.000000  0.000000    -0.009473   -0.022439    0.537212

  13 f/i=    0.023024 THz     0.144662 2PiTHz    0.767985 cm-1     0.095218 meV
             X         Y         Z           dx          dy          dz
      0.000000  2.743624  2.743624     0.398853    0.009780   -0.012780
      2.743624  0.000000  2.743624     0.403986    0.009656   -0.012780
      2.743624  2.743624  0.000000     0.403986    0.009780   -0.012617
      2.743624  2.743624  2.743624     0.470352    0.011387   -0.014879
      0.000000  0.000000  0.000000     0.540085    0.013075   -0.017085

[...]

  15 f/i=    0.023024 THz     0.144662 2PiTHz    0.767985 cm-1     0.095218 meV
             X         Y         Z           dx          dy          dz
      0.000000  2.743624  2.743624     0.009636   -0.404188   -0.000807
      2.743624  0.000000  2.743624     0.009760   -0.399052   -0.000807
      2.743624  2.743624  0.000000     0.009760   -0.404188   -0.000797
      2.743624  2.743624  2.743624     0.011363   -0.470587   -0.000940
      0.000000  0.000000  0.000000     0.013048   -0.540355   -0.001079

 MACROSCOPIC STATIC DIELECTRIC TENSOR IONIC CONTRIBUTION
          12.684972     0.000000    -0.000000
           0.000000    12.684971     0.000000
          -0.000000     0.000000    12.684971

 ELASTIC MODULI IONIC CONTR (kBar)
 Direction    XX          YY          ZZ          XY          YZ          ZX
 XX           0.0000      0.0000      0.0000      0.0000      0.0000      0.0000
 YY           0.0000      0.0000      0.0000      0.0000      0.0000      0.0000
 ZZ           0.0000      0.0000      0.0000      0.0000      0.0000      0.0000
 XY           0.0000      0.0000      0.0000      0.0000      0.0000      0.0000
 YZ           0.0000      0.0000      0.0000      0.0000      0.0000      0.0000
 ZX           0.0000      0.0000      0.0000      0.0000      0.0000      0.0000

 PIEZOELECTRIC TENSOR IONIC CONTR  for field in x, y, z        (C/m^2)
          XX          YY          ZZ          XY          YZ          ZX
  x     0.00000     0.00000     0.00000     0.00000     0.00000     0.00000
  y     0.00000     0.00000     0.00000     0.00000     0.00000     0.00000
  z     0.00000     0.00000     0.00000     0.00000     0.00000     0.00000